p cnf 43 83
1 0
-4 2 0
-4 3 0
4 -2 -3 0
-5 1 0
-5 -3 0
5 -1 3 0
-6 -4 0
-6 -5 0
6 4 5 0
-7 2 0
-7 6 0
7 -2 -6 0
-8 2 0
-8 -6 0
8 -2 6 0
-9 -3 0
-9 -6 0
9 3 6 0
-10 3 0
-10 6 0
10 -3 -6 0
-11 -9 0
-11 -10 0
11 9 10 0
-12 -8 0
-12 11 0
12 8 -11 0
-13 -7 0
-13 12 0
13 7 -12 0
14 3 13 0
15 2 -6 0
-16 2 0
-16 6 0
16 -2 -6 0
-17 2 0
-17 -16 0
17 -2 16 0
-18 1 0
-18 3 0
18 -1 -3 0
-19 3 0
-19 -6 0
19 -3 6 0
-20 -18 0
-20 -19 0
20 18 19 0
-21 -17 0
-21 20 0
21 17 -20 0
22 -1 -21 0
-23 -15 0
-23 -22 0
-24 -14 0
-24 23 0
25 -3 24 0
26 -13 -25 0
27 13 24 0
28 -6 -16 0
29 3 -28 0
30 2 -16 0
31 6 21 0
32 -3 -31 0
33 -2 21 0
34 3 13 0
35 6 -34 0
36 6 13 0
-37 -35 0
-37 -36 0
-38 -33 0
-38 37 0
-39 -32 0
-39 38 0
-40 -30 0
-40 39 0
-41 -29 0
-41 40 0
-42 -27 0
-42 41 0
-43 -26 0
-43 42 0
43 0
